(declare-const X String)
; SystemSleuth1\x2E0versionHost\x3AArrowHost\x3a3Awebsearch\x2Edrsnsrch\x2EcomhostieiWonHost\x3apjpoptwql\x2frlnj
(assert (not (str.in_re X (str.to_re "SystemSleuth\u{13}1.0versionHost:ArrowHost:3Awebsearch.drsnsrch.com\u{13}hostieiWonHost:pjpoptwql/rlnj\u{a}"))))
(check-sat)
